(set-info :smt-lib-version 2.6)
(set-logic QF_FP)
(set-info :source |
Generated by: Chenqi Cui
Generated on: 2025-12-11
Generator: AutoSMTGen
Application: Generating SMT constraints with small solution spaces to make them challenging for SMT solvers
Target solver: Z3, CVC5, Bitwuzla
|)
(set-info :license "https://creativecommons.org/licenses/by/4.0/")
(set-info :category "industrial")
(set-info :status sat)
; benchmark generated from python API

(declare-fun x9 () (_ FloatingPoint 11 53))
(declare-fun x8 () (_ FloatingPoint 11 53))
(declare-fun x7 () (_ FloatingPoint 11 53))
(declare-fun x6 () (_ FloatingPoint 11 53))
(declare-fun x5 () (_ FloatingPoint 11 53))
(declare-fun x4 () (_ FloatingPoint 11 53))
(declare-fun x3 () (_ FloatingPoint 11 53))
(declare-fun x2 () (_ FloatingPoint 11 53))
(declare-fun x1 () (_ FloatingPoint 11 53))
(declare-fun x0 () (_ FloatingPoint 11 53))
(assert
 (let ((?x20 (fp.add roundNearestTiesToEven (fp.mul roundNearestTiesToEven (fp #b1 #b10000000100 #xed291cf073133) x0) (fp.mul roundNearestTiesToEven (fp #b1 #b10000000100 #x544b139cafd85) x1))))
 (let ((?x23 (fp.add roundNearestTiesToEven ?x20 (fp.mul roundNearestTiesToEven (fp #b0 #b10000000101 #x54dc16d1bde3f) x2))))
 (let ((?x26 (fp.add roundNearestTiesToEven ?x23 (fp.mul roundNearestTiesToEven (fp #b1 #b10000000101 #x17932350555d5) x3))))
 (let ((?x29 (fp.add roundNearestTiesToEven ?x26 (fp.mul roundNearestTiesToEven (fp #b0 #b10000000010 #xbec1e59eaa8f8) x4))))
 (let ((?x32 (fp.add roundNearestTiesToEven ?x29 (fp.mul roundNearestTiesToEven (fp #b0 #b10000000100 #x6dedf19578488) x5))))
 (let ((?x35 (fp.add roundNearestTiesToEven ?x32 (fp.mul roundNearestTiesToEven (fp #b0 #b10000000011 #xdcab75d4e3868) x6))))
 (let ((?x38 (fp.add roundNearestTiesToEven ?x35 (fp.mul roundNearestTiesToEven (fp #b0 #b10000000100 #x7ec6d01cb0bfc) x7))))
 (let ((?x41 (fp.add roundNearestTiesToEven ?x38 (fp.mul roundNearestTiesToEven (fp #b0 #b10000000000 #x3972c0cab8e2d) x8))))
 (let ((?x44 (fp.add roundNearestTiesToEven ?x41 (fp.mul roundNearestTiesToEven (fp #b1 #b10000000100 #x02a308fce048b) x9))))
 (fp.leq ?x44 (fp #b0 #b10000000101 #x887325c9c2968))))))))))))
(assert
 (let ((?x68 (fp.add roundNearestTiesToEven (fp.mul roundNearestTiesToEven (fp #b1 #b10000000011 #xab32e07c8c375) x0) (fp.mul roundNearestTiesToEven (fp #b1 #b10000000011 #xe21ee3c7e6087) x1))))
 (let ((?x71 (fp.add roundNearestTiesToEven ?x68 (fp.mul roundNearestTiesToEven (fp #b0 #b10000000010 #x20bccb3dc3739) x2))))
 (let ((?x74 (fp.add roundNearestTiesToEven ?x71 (fp.mul roundNearestTiesToEven (fp #b1 #b10000000001 #x681b2ba9acca0) x3))))
 (let ((?x77 (fp.add roundNearestTiesToEven ?x74 (fp.mul roundNearestTiesToEven (fp #b1 #b10000000010 #x93b8251fc2d4b) x4))))
 (let ((?x80 (fp.add roundNearestTiesToEven ?x77 (fp.mul roundNearestTiesToEven (fp #b1 #b10000000101 #x4a4db2decffff) x5))))
 (let ((?x83 (fp.add roundNearestTiesToEven ?x80 (fp.mul roundNearestTiesToEven (fp #b1 #b10000000100 #xa31e0bdb4ebf2) x6))))
 (let ((?x86 (fp.add roundNearestTiesToEven ?x83 (fp.mul roundNearestTiesToEven (fp #b1 #b10000000100 #x2a3fcc1b34cb1) x7))))
 (let ((?x89 (fp.add roundNearestTiesToEven ?x86 (fp.mul roundNearestTiesToEven (fp #b0 #b10000000101 #x3f0974bc35dae) x8))))
 (let ((?x92 (fp.add roundNearestTiesToEven ?x89 (fp.mul roundNearestTiesToEven (fp #b0 #b10000000010 #x0bb4ae245a40f) x9))))
 (fp.leq ?x92 (fp #b1 #b10000000000 #x73c40eecf02b8))))))))))))
(assert
 (let ((?x99 (fp.add roundNearestTiesToEven (fp.mul roundNearestTiesToEven (fp #b1 #b10000000000 #x4989d9e3d4aee) x0) (fp.mul roundNearestTiesToEven (fp #b0 #b10000000101 #x8da623cbee95f) x1))))
 (let ((?x102 (fp.add roundNearestTiesToEven ?x99 (fp.mul roundNearestTiesToEven (fp #b1 #b10000000010 #x338c189f30c91) x2))))
 (let ((?x105 (fp.add roundNearestTiesToEven ?x102 (fp.mul roundNearestTiesToEven (fp #b1 #b10000000100 #x776993bbbbf3e) x3))))
 (let ((?x108 (fp.add roundNearestTiesToEven ?x105 (fp.mul roundNearestTiesToEven (fp #b0 #b10000000101 #x3a59990511470) x4))))
 (let ((?x111 (fp.add roundNearestTiesToEven ?x108 (fp.mul roundNearestTiesToEven (fp #b0 #b10000000100 #xccdd0b1327f1d) x5))))
 (let ((?x114 (fp.add roundNearestTiesToEven ?x111 (fp.mul roundNearestTiesToEven (fp #b1 #b10000000101 #x5a4829a0a1ca9) x6))))
 (let ((?x117 (fp.add roundNearestTiesToEven ?x114 (fp.mul roundNearestTiesToEven (fp #b0 #b10000000101 #x74a6fd22bdb51) x7))))
 (let ((?x120 (fp.add roundNearestTiesToEven ?x117 (fp.mul roundNearestTiesToEven (fp #b0 #b10000000100 #x9dd99f8e9b185) x8))))
 (let ((?x123 (fp.add roundNearestTiesToEven ?x120 (fp.mul roundNearestTiesToEven (fp #b0 #b10000000101 #x406fd4b997ac4) x9))))
 (fp.leq ?x123 (fp #b1 #b10000000011 #xcf99e6311fb79))))))))))))
(assert
 (let ((?x130 (fp.add roundNearestTiesToEven (fp.mul roundNearestTiesToEven (fp #b1 #b10000000011 #xeb9f3e87cde2c) x0) (fp.mul roundNearestTiesToEven (fp #b1 #b10000000100 #x31e475072e735) x1))))
 (let ((?x133 (fp.add roundNearestTiesToEven ?x130 (fp.mul roundNearestTiesToEven (fp #b0 #b10000000100 #x9eb3fb6661050) x2))))
 (let ((?x136 (fp.add roundNearestTiesToEven ?x133 (fp.mul roundNearestTiesToEven (fp #b1 #b10000000100 #xe381aeeb0b98d) x3))))
 (let ((?x139 (fp.add roundNearestTiesToEven ?x136 (fp.mul roundNearestTiesToEven (fp #b1 #b10000000001 #x1946119d8aa12) x4))))
 (let ((?x142 (fp.add roundNearestTiesToEven ?x139 (fp.mul roundNearestTiesToEven (fp #b0 #b10000000101 #x7006b9323d33a) x5))))
 (let ((?x145 (fp.add roundNearestTiesToEven ?x142 (fp.mul roundNearestTiesToEven (fp #b0 #b10000000100 #xa755f6832f328) x6))))
 (let ((?x148 (fp.add roundNearestTiesToEven ?x145 (fp.mul roundNearestTiesToEven (fp #b0 #b10000000101 #x3d5fddc71795d) x7))))
 (let ((?x151 (fp.add roundNearestTiesToEven ?x148 (fp.mul roundNearestTiesToEven (fp #b0 #b10000000010 #xd4c325e542c2e) x8))))
 (let ((?x154 (fp.add roundNearestTiesToEven ?x151 (fp.mul roundNearestTiesToEven (fp #b0 #b10000000101 #x189e168305175) x9))))
 (fp.leq ?x154 (fp #b0 #b10000000101 #x5a0be06087e6a))))))))))))
(assert
 (let ((?x161 (fp.add roundNearestTiesToEven (fp.mul roundNearestTiesToEven (fp #b1 #b10000000010 #xb6d9b881d3bb8) x0) (fp.mul roundNearestTiesToEven (fp #b1 #b10000000101 #x28437baa76093) x1))))
 (let ((?x164 (fp.add roundNearestTiesToEven ?x161 (fp.mul roundNearestTiesToEven (fp #b1 #b10000000100 #x0c50def2ea490) x2))))
 (let ((?x167 (fp.add roundNearestTiesToEven ?x164 (fp.mul roundNearestTiesToEven (fp #b1 #b10000000101 #x5301c22122686) x3))))
 (let ((?x170 (fp.add roundNearestTiesToEven ?x167 (fp.mul roundNearestTiesToEven (fp #b0 #b10000000101 #x1883ccb3fdbde) x4))))
 (let ((?x173 (fp.add roundNearestTiesToEven ?x170 (fp.mul roundNearestTiesToEven (fp #b0 #b10000000101 #x66f7ce941ff77) x5))))
 (let ((?x176 (fp.add roundNearestTiesToEven ?x173 (fp.mul roundNearestTiesToEven (fp #b0 #b10000000101 #x2e3afbd0ac0c5) x6))))
 (let ((?x179 (fp.add roundNearestTiesToEven ?x176 (fp.mul roundNearestTiesToEven (fp #b1 #b10000000011 #xe444e229ce71e) x7))))
 (let ((?x182 (fp.add roundNearestTiesToEven ?x179 (fp.mul roundNearestTiesToEven (fp #b1 #b10000000100 #x41396000252d4) x8))))
 (let ((?x185 (fp.add roundNearestTiesToEven ?x182 (fp.mul roundNearestTiesToEven (fp #b0 #b10000000011 #x4f473f92ec1d3) x9))))
 (fp.leq ?x185 (fp #b0 #b10000000101 #x60874f5a4d141))))))))))))
(assert
 (let ((?x192 (fp.add roundNearestTiesToEven (fp.mul roundNearestTiesToEven (fp #b0 #b10000000100 #x78b9a566ff4f6) x0) (fp.mul roundNearestTiesToEven (fp #b1 #b10000000010 #xa320e6cfd981f) x1))))
 (let ((?x195 (fp.add roundNearestTiesToEven ?x192 (fp.mul roundNearestTiesToEven (fp #b0 #b10000000011 #xa368d73ebfbb8) x2))))
 (let ((?x198 (fp.add roundNearestTiesToEven ?x195 (fp.mul roundNearestTiesToEven (fp #b1 #b10000000101 #x15985ad633e82) x3))))
 (let ((?x201 (fp.add roundNearestTiesToEven ?x198 (fp.mul roundNearestTiesToEven (fp #b0 #b10000000101 #x13e02e6a73222) x4))))
 (let ((?x204 (fp.add roundNearestTiesToEven ?x201 (fp.mul roundNearestTiesToEven (fp #b1 #b10000000010 #xffc80c2fd65d9) x5))))
 (let ((?x207 (fp.add roundNearestTiesToEven ?x204 (fp.mul roundNearestTiesToEven (fp #b1 #b10000000100 #x92110f502eb92) x6))))
 (let ((?x210 (fp.add roundNearestTiesToEven ?x207 (fp.mul roundNearestTiesToEven (fp #b0 #b10000000011 #x96468bcab4d93) x7))))
 (let ((?x213 (fp.add roundNearestTiesToEven ?x210 (fp.mul roundNearestTiesToEven (fp #b1 #b10000000100 #x7d02d8010e6bc) x8))))
 (let ((?x216 (fp.add roundNearestTiesToEven ?x213 (fp.mul roundNearestTiesToEven (fp #b1 #b10000000010 #x10b703f9a4646) x9))))
 (fp.leq ?x216 (fp #b1 #b10000000100 #xf606c4b4492a1))))))))))))
(assert
 (let ((?x223 (fp.add roundNearestTiesToEven (fp.mul roundNearestTiesToEven (fp #b1 #b10000000011 #x954557d32c2e1) x0) (fp.mul roundNearestTiesToEven (fp #b0 #b10000000100 #xa94aa991a974c) x1))))
 (let ((?x226 (fp.add roundNearestTiesToEven ?x223 (fp.mul roundNearestTiesToEven (fp #b1 #b10000000011 #xaa1f4d4641706) x2))))
 (let ((?x229 (fp.add roundNearestTiesToEven ?x226 (fp.mul roundNearestTiesToEven (fp #b1 #b10000000101 #x31cc23bb413a8) x3))))
 (let ((?x232 (fp.add roundNearestTiesToEven ?x229 (fp.mul roundNearestTiesToEven (fp #b1 #b10000000011 #x2aa45d8d9cd24) x4))))
 (let ((?x235 (fp.add roundNearestTiesToEven ?x232 (fp.mul roundNearestTiesToEven (fp #b0 #b10000000001 #xa69a918d190ac) x5))))
 (let ((?x238 (fp.add roundNearestTiesToEven ?x235 (fp.mul roundNearestTiesToEven (fp #b0 #b10000000100 #x907f5640e643f) x6))))
 (let ((?x241 (fp.add roundNearestTiesToEven ?x238 (fp.mul roundNearestTiesToEven (fp #b0 #b10000000101 #x74acea06c148e) x7))))
 (let ((?x244 (fp.add roundNearestTiesToEven ?x241 (fp.mul roundNearestTiesToEven (fp #b1 #b10000000101 #x60ef3ec17a316) x8))))
 (let ((?x247 (fp.add roundNearestTiesToEven ?x244 (fp.mul roundNearestTiesToEven (fp #b1 #b10000000010 #xd8fee6572deaf) x9))))
 (fp.leq ?x247 (fp #b0 #b10000000011 #x3b6f1d7022d56))))))))))))
(assert
 (let ((?x254 (fp.add roundNearestTiesToEven (fp.mul roundNearestTiesToEven (fp #b0 #b10000000101 #x88e0de609a06c) x0) (fp.mul roundNearestTiesToEven (fp #b1 #b10000000100 #x41c6a16680251) x1))))
 (let ((?x257 (fp.add roundNearestTiesToEven ?x254 (fp.mul roundNearestTiesToEven (fp #b1 #b10000000100 #x51053205d3f96) x2))))
 (let ((?x260 (fp.add roundNearestTiesToEven ?x257 (fp.mul roundNearestTiesToEven (fp #b0 #b10000000101 #x25a45f9569db1) x3))))
 (let ((?x263 (fp.add roundNearestTiesToEven ?x260 (fp.mul roundNearestTiesToEven (fp #b0 #b10000000010 #x0a97f6da8d47b) x4))))
 (let ((?x266 (fp.add roundNearestTiesToEven ?x263 (fp.mul roundNearestTiesToEven (fp #b1 #b10000000101 #x69f174f3754ac) x5))))
 (let ((?x269 (fp.add roundNearestTiesToEven ?x266 (fp.mul roundNearestTiesToEven (fp #b0 #b10000000100 #xe28da3dc6e50b) x6))))
 (let ((?x272 (fp.add roundNearestTiesToEven ?x269 (fp.mul roundNearestTiesToEven (fp #b1 #b10000000101 #x5eaf86d7321c2) x7))))
 (let ((?x275 (fp.add roundNearestTiesToEven ?x272 (fp.mul roundNearestTiesToEven (fp #b1 #b10000000100 #x026a2e88eda6f) x8))))
 (let ((?x278 (fp.add roundNearestTiesToEven ?x275 (fp.mul roundNearestTiesToEven (fp #b1 #b10000000101 #x76cc223ae87ce) x9))))
 (fp.leq ?x278 (fp #b1 #b10000000010 #xfb922cc76de29))))))))))))
(assert
 (let ((?x285 (fp.add roundNearestTiesToEven (fp.mul roundNearestTiesToEven (fp #b0 #b10000000100 #xe3903226c792d) x0) (fp.mul roundNearestTiesToEven (fp #b0 #b10000000011 #x73597954df1c6) x1))))
 (let ((?x288 (fp.add roundNearestTiesToEven ?x285 (fp.mul roundNearestTiesToEven (fp #b1 #b10000000101 #x712ed972ce75f) x2))))
 (let ((?x291 (fp.add roundNearestTiesToEven ?x288 (fp.mul roundNearestTiesToEven (fp #b0 #b10000000101 #x246e7ca19ac1b) x3))))
 (let ((?x294 (fp.add roundNearestTiesToEven ?x291 (fp.mul roundNearestTiesToEven (fp #b0 #b10000000011 #x6c51da19ad1b4) x4))))
 (let ((?x297 (fp.add roundNearestTiesToEven ?x294 (fp.mul roundNearestTiesToEven (fp #b1 #b10000000100 #x398a14173efee) x5))))
 (let ((?x300 (fp.add roundNearestTiesToEven ?x297 (fp.mul roundNearestTiesToEven (fp #b0 #b10000000100 #x303b9cff5203c) x6))))
 (let ((?x303 (fp.add roundNearestTiesToEven ?x300 (fp.mul roundNearestTiesToEven (fp #b1 #b10000000100 #xeed80488aa2c0) x7))))
 (let ((?x306 (fp.add roundNearestTiesToEven ?x303 (fp.mul roundNearestTiesToEven (fp #b0 #b10000000011 #x2a0ea6875ab5a) x8))))
 (let ((?x309 (fp.add roundNearestTiesToEven ?x306 (fp.mul roundNearestTiesToEven (fp #b0 #b10000000101 #x96f394859df05) x9))))
 (fp.leq ?x309 (fp #b0 #b10000000101 #x00213f4e15366))))))))))))
(assert
 (let ((?x316 (fp.add roundNearestTiesToEven (fp.mul roundNearestTiesToEven (fp #b0 #b10000000001 #x8f9e0d33162bb) x0) (fp.mul roundNearestTiesToEven (fp #b0 #b10000000100 #xc5dc13b2992f7) x1))))
 (let ((?x319 (fp.add roundNearestTiesToEven ?x316 (fp.mul roundNearestTiesToEven (fp #b0 #b10000000010 #x3639b73d36931) x2))))
 (let ((?x322 (fp.add roundNearestTiesToEven ?x319 (fp.mul roundNearestTiesToEven (fp #b0 #b10000000100 #x5ba2f58e261d5) x3))))
 (let ((?x325 (fp.add roundNearestTiesToEven ?x322 (fp.mul roundNearestTiesToEven (fp #b1 #b10000000011 #xb25da4a64c98e) x4))))
 (let ((?x328 (fp.add roundNearestTiesToEven ?x325 (fp.mul roundNearestTiesToEven (fp #b0 #b10000000101 #x51d151886ce66) x5))))
 (let ((?x331 (fp.add roundNearestTiesToEven ?x328 (fp.mul roundNearestTiesToEven (fp #b1 #b10000000100 #x3f6a9201bf52d) x6))))
 (let ((?x334 (fp.add roundNearestTiesToEven ?x331 (fp.mul roundNearestTiesToEven (fp #b0 #b10000000010 #xa0b5d25a9b5b2) x7))))
 (let ((?x337 (fp.add roundNearestTiesToEven ?x334 (fp.mul roundNearestTiesToEven (fp #b0 #b10000000011 #x738c37c7ffada) x8))))
 (let ((?x340 (fp.add roundNearestTiesToEven ?x337 (fp.mul roundNearestTiesToEven (fp #b0 #b10000000101 #x59e7a9e70b221) x9))))
 (fp.leq ?x340 (fp #b1 #b10000000100 #x7d326c6ba4152))))))))))))
(assert
 (let ((?x347 (fp.add roundNearestTiesToEven (fp.mul roundNearestTiesToEven (fp #b1 #b10000000101 #x119ae1b962f8e) x0) (fp.mul roundNearestTiesToEven (fp #b1 #b10000000101 #x52ca3664439af) x1))))
(let ((?x350 (fp.add roundNearestTiesToEven ?x347 (fp.mul roundNearestTiesToEven (fp #b1 #b10000000100 #x383ff38231ff7) x2))))
(let ((?x353 (fp.add roundNearestTiesToEven ?x350 (fp.mul roundNearestTiesToEven (fp #b0 #b10000000000 #xcb63de80b9833) x3))))
(let ((?x356 (fp.add roundNearestTiesToEven ?x353 (fp.mul roundNearestTiesToEven (fp #b0 #b10000000101 #xa3edc74211cbd) x4))))
(let ((?x359 (fp.add roundNearestTiesToEven ?x356 (fp.mul roundNearestTiesToEven (fp #b0 #b10000000100 #xf29edb39234dd) x5))))
(let ((?x362 (fp.add roundNearestTiesToEven ?x359 (fp.mul roundNearestTiesToEven (fp #b1 #b10000000011 #x99882c6c8b66e) x6))))
(let ((?x365 (fp.add roundNearestTiesToEven ?x362 (fp.mul roundNearestTiesToEven (fp #b1 #b10000000100 #x4df25842560f9) x7))))
(let ((?x368 (fp.add roundNearestTiesToEven ?x365 (fp.mul roundNearestTiesToEven (fp #b1 #b10000000101 #x6044581f68e31) x8))))
(let ((?x371 (fp.add roundNearestTiesToEven ?x368 (fp.mul roundNearestTiesToEven (fp #b1 #b10000000101 #x54081f56c719f) x9))))
(fp.leq ?x371 (fp #b1 #b10000000010 #x3cf44534fc629))))))))))))
(check-sat)
(exit)
